SCIP version 5.0.0 [precision: 8 byte] [memory: block] [mode: optimized] [LP solver: NONE] [GitHash: 3bbd232]
Copyright (C) 2002-2017 Konrad-Zuse-Zentrum fuer Informationstechnik Berlin (ZIB)

External codes: 
  Readline EditLine w  GNU library for command line editing (gnu.org/s/readline)
  CppAD 20160000.1     Algorithmic Differentiation of C++ algorithms developed by B. Bell (www.coin-or.org/CppAD)
  ZLIB 1.2.5           General purpose compression library by J. Gailly and M. Adler (zlib.net)
  GMP 6.1.2            GNU Multiple Precision Arithmetic Library developed by T. Granlund (gmplib.org)

user parameter file <scip.set> not found - using default parameters

read problem <../../Split_data/output/biodeg/4/4_sample_biodeg.logreg>
============

File name	:	../../Split_data/output/biodeg/4/4_sample_biodeg.logreg
Problem name 	:	4_sample_biodeg
Number of data	:	844
Number of var	:	41
The given data has linear independence

[dim=1] time: 0.029358
[dim=2] time: 0.062175
[dim=3] time: 0.103665
[dim=4] time: 0.136628
[dim=5] time: 0.172673
[dim=6] time: 0.201653
[dim=7] time: 0.229297
[dim=8] time: 0.257262
[dim=9] time: 0.283668
[dim=10] time: 0.313877
[dim=11] time: 0.340473
[dim=12] time: 0.365186
[dim=13] time: 0.388487
[dim=14] time: 0.412767
[dim=15] time: 0.436905
[dim=16] time: 0.459199
[dim=17] time: 0.481792
[dim=18] time: 0.5059
[dim=19] time: 0.526853
[dim=20] time: 0.547785
[dim=21] time: 0.568101
[dim=22] time: 0.58747
[dim=23] time: 0.605965
[dim=24] Time of forward = 0.623221sec.
AIC: 515.644
k: 23

[dim=41] time: 0.146971
[dim=40] time: 0.19673
[dim=39] time: 0.249525
[dim=38] time: 0.300603
[dim=37] time: 0.351733
[dim=36] time: 0.398627
[dim=35] time: 0.445814
[dim=34] time: 0.492122
[dim=33] time: 0.537554
[dim=32] time: 0.580631
[dim=31] time: 0.626958
[dim=30] time: 0.662608
[dim=29] time: 0.700797
[dim=28] time: 0.733648
[dim=27] time: 0.763744
[dim=26] time: 0.790844
[dim=25] time: 0.821438
[dim=24] Time of backward = 0.849296sec.
AIC: 513.434
k: 25
